p edge 95 94 41
e 1 72
e 1 93
e 1 4
e 1 71
e 2 77
e 3 83
e 3 59
e 4 58
e 5 88
e 5 75
e 6 63
e 6 78
e 7 49
e 8 11
e 8 84
e 8 78
e 9 41
e 10 30
e 10 64
e 11 37
e 12 45
e 13 17
e 14 43
e 14 31
e 14 50
e 15 64
e 15 31
e 16 65
e 17 82
e 17 61
e 18 76
e 18 59
e 19 20
e 19 73
e 21 36
e 21 29
e 22 23
e 22 40
e 22 42
e 24 25
e 25 77
e 25 35
e 25 52
e 26 32
e 27 89
e 28 33
e 28 41
e 29 47
e 31 47
e 32 38
e 32 54
e 33 80
e 33 71
e 34 94
e 34 81
e 35 92
e 38 49
e 38 52
e 39 86
e 41 74
e 41 46
e 41 87
e 42 87
e 42 51
e 44 68
e 44 89
e 44 90
e 44 55
e 45 59
e 46 61
e 47 70
e 48 55
e 50 68
e 51 65
e 53 66
e 53 91
e 54 81
e 54 58
e 55 78
e 55 85
e 55 65
e 56 86
e 56 92
e 57 87
e 59 72
e 60 65
e 60 73
e 62 81
e 64 69
e 65 75
e 67 73
e 73 95
e 79 91
e 88 91
